ssat_solver_solve2
#level: 2
Abc_NtkNodeNum(s->pNtk): 478  , BDD limit: 10240
level 1: 20 element
Exist
existence_eliminate_scope
Abc_NtkIsBddLogic(pNtk): 0
Abc_NtkIsStrash(pNtk): 1
existence_eliminate_scope_aig
exist by BDD failed
Abc_NtkNodeNum(s->pNtk): 9193720  , BDD limit: 11032464
Build BDD success
level 0: 20 element
Random
c ssat solving in ABC
#var: 40
s SATISFIABLE
  > Upper bound = 4.043789e-01
  > Lower bound = 4.043789e-01
FINISHED CPU 393.50 MEM 0 MAXMEM 1877616 STALE 0 MAXMEM_RSS 1737404
<time name="ALL">393570</time>
real 393.66
user 457.99
sys 176.63
